
(set-logic ALL) 

(declare-datatype MyList ((Nil) (Cons (head Real) (tail MyList)) )) 
(declare-fun l0 () MyList) 
(declare-fun l1 () MyList) 
(declare-fun l2 () MyList) 
(declare-fun l3 () MyList) 
(declare-fun i0 () Real) 
(declare-fun i1 () Real) 
(assert (is-Nil l2) )
(assert (not (= l0 Nil)) )
(assert (or (= l3 Nil) (is-Nil Nil) (is-Nil l0)) )
(assert (is-Cons Nil) )
(assert (is-Nil Nil) )
(assert (and (= l1 Nil) (= l3 l0) (is-Nil l3) (is-Nil Nil)) )
(assert (is-Cons Nil) )
(assert (not (= l2 Nil)) )
(check-sat)
